# Objective value = 3.0435424341948669e+02
x[0] 1
x[1] 0
x[2] 1
x[3] 1
x[4] 0
x[5] 1
x[6] 1
x[7] 0
x[8] 0
x[9] 1
x[10] 0
x[11] 1
x[12] 1
x[13] 1
x[14] 1
x[15] 0
x[16] 0
x[17] 1
x[18] 1
x[19] 0
x[20] 0
x[21] 1
x[22] 1
x[23] 1
x[24] 1
x[25] 1
x[26] 0
x[27] 1
x[28] 0
x[29] 0
x[30] 1
x[31] 1
x[32] 1
x[33] 0
x[34] 1
x[35] 1
x[36] 0
x[37] 1
x[38] 0
x[39] 0
x[40] 0
x[41] 1
x[42] 0
x[43] 0
x[44] 0
x[45] 1
x[46] 0
x[47] 1
x[48] 1
x[49] 1
x[50] 1
x[51] 1
x[52] 0
x[53] 1
x[54] 0
x[55] 1
x[56] 0
x[57] 0
x[58] 0
x[59] 1
x[60] 1
x[61] 1
x[62] 0
x[63] 0
x[64] 0
x[65] 1
x[66] 0
x[67] 1
x[68] 0
x[69] 1
x[70] 1
x[71] 0
x[72] 1
x[73] 0
x[74] 0
x[75] 1
x[76] 0
x[77] 0
x[78] 0
x[79] 0
x[80] 0
x[81] 1
x[82] 1
x[83] 1
x[84] 0
x[85] 1
x[86] 0
x[87] 0
x[88] 0
x[89] 1
x[90] 1
x[91] 0
x[92] 0
x[93] 0
x[94] 1
x[95] 0
x[96] 0
x[97] 0
x[98] 0
x[99] 1
x[100] 0
x[101] 0
x[102] 0
x[103] 1
x[104] 1
x[105] 0
x[106] 1
x[107] 1
x[108] 1
x[109] 1
x[110] 0
x[111] 0
x[112] 0
x[113] 1
x[114] 0
x[115] 1
x[116] 0
x[117] 1
x[118] 0
x[119] 0
x[120] 0
x[121] 0
x[122] 0
x[123] 0
x[124] 1
x[125] 0
x[126] 1
x[127] 0
x[128] 0
x[129] 0
x[130] 0
x[131] 0
x[132] 1
x[133] 1
x[134] 0
x[135] 0
x[136] 1
x[137] 0
x[138] 0
x[139] 1
x[140] 1
x[141] 1
x[142] 1
x[143] 1
x[144] 0
x[145] 1
x[146] 1
x[147] 1
x[148] 0
x[149] 1
x[150] 0
x[151] 1
x[152] 0
x[153] 1
x[154] 0
x[155] 1
x[156] 0
x[157] 0
x[158] 1
x[159] 0
x[160] 1
x[161] 0
x[162] 0
x[163] 1
x[164] 0
x[165] 0
x[166] 1
x[167] 0
x[168] 1
x[169] 1
x[170] 1
x[171] 0
x[172] 1
x[173] 0
x[174] 0
x[175] 1
x[176] 0
x[177] 0
x[178] 1
x[179] 0
x[180] 0
x[181] 0
x[182] 1
x[183] 0
x[184] 1
x[185] 1
x[186] 1
x[187] 0
x[188] 0
x[189] 1
x[190] 0
x[191] 1
x[192] 0
x[193] 1
x[194] 0
x[195] 1
x[196] 1
x[197] 1
x[198] 1
x[199] 1
x[200] 1
x[201] 1
x[202] 0
x[203] 1
x[204] 0
x[205] 1
x[206] 0
x[207] 0
x[208] 1
x[209] 0
x[210] 1
x[211] 1
x[212] 1
x[213] 0
x[214] 0
x[215] 1
x[216] 0
x[217] 0
x[218] 0
x[219] 1
x[220] 1
x[221] 1
x[222] 1
x[223] 0
x[224] 0
x[225] 0
x[226] 0
x[227] 1
x[228] 0
x[229] 0
x[230] 1
x[231] 1
x[232] 0
x[233] 1
x[234] 0
x[235] 1
x[236] 1
x[237] 0
x[238] 0
x[239] 0
x[240] 0
x[241] 0
x[242] 0
x[243] 0
x[244] 1
x[245] 1
x[246] 0
x[247] 1
x[248] 1
x[249] 1
x[250] 1
x[251] 0
x[252] 1
x[253] 1
x[254] 0
x[255] 1
x[256] 1
x[257] 0
x[258] 0
x[259] 0
x[260] 0
x[261] 0
x[262] 0
x[263] 0
x[264] 1
x[265] 1
x[266] 1
x[267] 1
x[268] 0
x[269] 0
x[270] 0
x[271] 1
x[272] 0
x[273] 1
x[274] 0
x[275] 0
x[276] 1
x[277] 0
x[278] 0
x[279] 0
x[280] 0
x[281] 1
x[282] 0
x[283] 1
x[284] 1
x[285] 0
x[286] 0
x[287] 0
x[288] 0
x[289] 0
x[290] 1
x[291] 1
x[292] 1
x[293] 1
x[294] 1
x[295] 0
x[296] 1
x[297] 0
x[298] 1
x[299] 1
x[300] 1
x[301] 0
x[302] 1
x[303] 1
x[304] 0
x[305] 1
x[306] 1
x[307] 0
x[308] 0
x[309] 0
x[310] 0
x[311] 0
x[312] 1
x[313] 0
x[314] 0
x[315] 1
x[316] 1
x[317] 0
x[318] 1
x[319] 0
x[320] 0
x[321] 0
x[322] 0
x[323] 0
x[324] 0
x[325] 1
x[326] 0
x[327] 1
x[328] 1
x[329] 0
x[330] 0
x[331] 1
x[332] 1
x[333] 1
x[334] 1
x[335] 0
x[336] 0
x[337] 0
x[338] 0
x[339] 1
x[340] 0
x[341] 1
x[342] 1
x[343] 0
x[344] 0
x[345] 0
x[346] 0
x[347] 1
x[348] 0
x[349] 1
x[350] 0
x[351] 0
x[352] 0
x[353] 1
x[354] 1
x[355] 1
x[356] 0
x[357] 1
x[358] 0
x[359] 0
x[360] 0
x[361] 1
x[362] 0
x[363] 0
x[364] 0
x[365] 1
x[366] 0
x[367] 1
x[368] 1
x[369] 1
x[370] 0
x[371] 0
x[372] 1
x[373] 1
x[374] 0
x[375] 1
x[376] 1
x[377] 1
x[378] 0
x[379] 0
x[380] 1
x[381] 1
x[382] 1
x[383] 1
x[384] 0
x[385] 0
x[386] 1
x[387] 1
x[388] 1
x[389] 0
x[390] 1
x[391] 1
x[392] 0
x[393] 0
x[394] 1
x[395] 0
x[396] 0
x[397] 0
x[398] 0
x[399] 1
x[400] 1
x[401] 0
x[402] 1
x[403] 0
x[404] 0
x[405] 0
x[406] 0
x[407] 1
x[408] 1
x[409] 0
x[410] 0
x[411] 0
x[412] 0
x[413] 0
x[414] 1
x[415] 1
x[416] 0
x[417] 0
x[418] 0
x[419] 0
x[420] 0
x[421] 1
x[422] 0
x[423] 1
x[424] 1
x[425] 1
x[426] 0
x[427] 0
x[428] 0
x[429] 1
x[430] 1
x[431] 0
x[432] 0
x[433] 1
x[434] 0
x[435] 0
x[436] 1
x[437] 0
x[438] 0
x[439] 1
x[440] 1
x[441] 1
x[442] 0
x[443] 0
x[444] 0
x[445] 0
x[446] 0
x[447] 0
x[448] 1
x[449] 1
x[450] 1
x[451] 1
x[452] 1
x[453] 0
x[454] 1
x[455] 0
x[456] 0
x[457] 0
x[458] 1
x[459] 1
x[460] 1
x[461] 1
x[462] 1
x[463] 1
x[464] 1
x[465] 0
x[466] 0
x[467] 1
x[468] 1
x[469] 1
x[470] 1
x[471] 1
x[472] 1
x[473] 1
x[474] 0
x[475] 1
x[476] 0
x[477] 0
x[478] 1
x[479] 1
x[480] 0
x[481] 1
x[482] 0
x[483] 0
x[484] 0
x[485] 1
x[486] 1
x[487] 1
x[488] 1
x[489] 1
x[490] 0
x[491] 0
x[492] 1
x[493] 0
x[494] 0
x[495] 1
x[496] 1
x[497] 0
x[498] 1
x[499] 1
x[500] 0
x[501] 1
x[502] 0
x[503] 1
x[504] 1
x[505] 1
x[506] 0
x[507] 1
x[508] 0
x[509] 0
x[510] 0
x[511] 1
x[512] 1
x[513] 1
x[514] 0
x[515] 1
x[516] 1
x[517] 1
x[518] 0
x[519] 0
x[520] 0
x[521] 0
x[522] 1
x[523] 1
x[524] 1
x[525] 0
x[526] 0
x[527] 0
x[528] 0
x[529] 1
x[530] 1
x[531] 0
x[532] 0
x[533] 1
x[534] 0
x[535] 0
x[536] 1
x[537] 0
x[538] 1
x[539] 1
x[540] 0
x[541] 0
x[542] 1
x[543] 1
x[544] 0
x[545] 1
x[546] 0
x[547] 1
x[548] 1
x[549] 1
x[550] 1
x[551] 0
x[552] 1
x[553] 1
x[554] 1
x[555] 0
x[556] 1
x[557] 1
x[558] 1
x[559] 0
x[560] 0
x[561] 1
x[562] 1
x[563] 0
x[564] 1
x[565] 0
x[566] 1
x[567] 1
x[568] 1
x[569] 0
x[570] 0
x[571] 0
x[572] 1
x[573] 1
x[574] 1
x[575] 0
x[576] 1
x[577] 0
x[578] 1
x[579] 1
x[580] 1
x[581] 0
x[582] 0
x[583] 1
x[584] 1
x[585] 1
x[586] 0
x[587] 0
x[588] 1
x[589] 0
x[590] 0
x[591] 1
x[592] 0
x[593] 1
x[594] 0
x[595] 0
x[596] 1
x[597] 1
x[598] 1
x[599] 1
x[600] 0
x[601] 1
x[602] 0
x[603] 1
x[604] 0
x[605] 0
x[606] 0
x[607] 0
x[608] 0
x[609] 1
x[610] 1
x[611] 0
x[612] 0
x[613] 0
x[614] 0
x[615] 1
x[616] 1
x[617] 0
x[618] 1
x[619] 1
x[620] 0
x[621] 0
x[622] 1
x[623] 0
x[624] 0
x[625] 0
x[626] 0
x[627] 0
x[628] 0
x[629] 1
x[630] 1
x[631] 1
x[632] 0
x[633] 0
x[634] 1
x[635] 1
x[636] 1
x[637] 1
x[638] 0
x[639] 0
x[640] 0
x[641] 1
x[642] 0
x[643] 0
x[644] 0
x[645] 1
x[646] 0
x[647] 1
x[648] 1
x[649] 0
x[650] 0
x[651] 1
x[652] 0
x[653] 0
x[654] 1
x[655] 1
x[656] 1
x[657] 1
x[658] 1
x[659] 1
x[660] 1
x[661] 0
x[662] 1
x[663] 0
x[664] 0
x[665] 0
x[666] 1
x[667] 0
x[668] 1
x[669] 1
x[670] 1
x[671] 1
x[672] 1
x[673] 0
x[674] 0
x[675] 0
x[676] 1
x[677] 1
x[678] 0
x[679] 1
x[680] 0
x[681] 1
x[682] 0
x[683] 0
x[684] 1
x[685] 1
x[686] 0
x[687] 1
x[688] 0
x[689] 1
x[690] 0
x[691] 0
x[692] 1
x[693] 1
x[694] 1
x[695] 1
x[696] 0
x[697] 0
x[698] 0
x[699] 1
x[700] 0
x[701] 1
x[702] 1
x[703] 1
x[704] 1
x[705] 0
x[706] 0
x[707] 1
x[708] 0
x[709] 0
x[710] 0
x[711] 0
x[712] 0
x[713] 0
x[714] 0
x[715] 0
x[716] 0
x[717] 0
x[718] 0
x[719] 0
x[720] 0
x[721] 0
x[722] 0
x[723] 0
x[724] 0
x[725] 0
x[726] 0
x[727] 0
x[728] 0
x[729] 0
x[730] 0
x[731] 1
x[732] 0
x[733] 1
x[734] 0
x[735] 1
x[736] 1
x[737] 0
x[738] 0
x[739] 0
x[740] 0
x[741] 1
x[742] 0
x[743] 1
x[744] 1
x[745] 0
x[746] 0
x[747] 0
x[748] 1
x[749] 0
x[750] 0
x[751] 0
x[752] 1
x[753] 1
x[754] 0
x[755] 1
x[756] 1
x[757] 1
x[758] 0
x[759] 0
x[760] 1
x[761] 0
x[762] 1
x[763] 0
x[764] 0
x[765] 1
x[766] 1
x[767] 0
x[768] 0
x[769] 0
x[770] 0
x[771] 1
x[772] 1
x[773] 1
x[774] 0
x[775] 0
x[776] 1
x[777] 1
x[778] 0
x[779] 0
x[780] 0
x[781] 0
x[782] 1
x[783] 0
x[784] 1
x[785] 0
x[786] 1
x[787] 1
x[788] 0
x[789] 1
x[790] 0
x[791] 0
x[792] 0
x[793] 1
x[794] 1
x[795] 1
x[796] 0
x[797] 1
x[798] 0
x[799] 1
x[800] 0
x[801] 1
x[802] 0
x[803] 0
x[804] 0
x[805] 0
x[806] 1
x[807] 0
x[808] 1
x[809] 1
x[810] 0
x[811] 1
x[812] 1
x[813] 0
x[814] 1
x[815] 0
x[816] 1
x[817] 1
x[818] 0
x[819] 0
x[820] 0
x[821] 0
x[822] 0
x[823] 0
x[824] 1
x[825] 1
x[826] 1
x[827] 0
x[828] 1
x[829] 1
x[830] 0
x[831] 1
x[832] 1
x[833] 1
x[834] 0
x[835] 0
x[836] 0
x[837] 1
x[838] 0
x[839] 1
x[840] 1
x[841] 1
x[842] 0
x[843] 0
x[844] 0
x[845] 0
x[846] 1
x[847] 1
x[848] 0
x[849] 0
x[850] 1
x[851] 0
x[852] 0
x[853] 0
x[854] 1
x[855] 1
x[856] 1
x[857] 1
x[858] 1
x[859] 1
x[860] 1
x[861] 1
x[862] 0
x[863] 0
x[864] 0
x[865] 0
x[866] 1
x[867] 0
x[868] 1
x[869] 0
x[870] 0
x[871] 1
x[872] 1
x[873] 0
x[874] 0
x[875] 1
x[876] 1
x[877] 0
x[878] 1
x[879] 1
x[880] 0
x[881] 1
x[882] 0
x[883] 1
x[884] 1
x[885] 1
x[886] 1
x[887] 1
x[888] 0
x[889] 1
x[890] 0
x[891] 1
x[892] 1
x[893] 1
x[894] 0
x[895] 1
x[896] 0
x[897] 1
x[898] 0
x[899] 1
x[900] 1
x[901] 0
x[902] 1
x[903] 1
x[904] 1
x[905] 1
x[906] 1
x[907] 1
x[908] 0
x[909] 0
x[910] 1
x[911] 1
x[912] 1
x[913] 1
x[914] 1
x[915] 0
x[916] 1
x[917] 1
x[918] 0
x[919] 1
x[920] 0
x[921] 1
x[922] 0
x[923] 1
x[924] 1
x[925] 0
x[926] 0
x[927] 0
x[928] 0
x[929] 1
x[930] 0
x[931] 1
x[932] 1
x[933] 0
x[934] 1
x[935] 1
x[936] 0
x[937] 0
x[938] 0
x[939] 0
x[940] 0
x[941] 0
x[942] 1
x[943] 0
x[944] 1
x[945] 1
x[946] 0
x[947] 1
x[948] 0
x[949] 0
x[950] 1
x[951] 0
x[952] 0
x[953] 0
x[954] 0
x[955] 1
x[956] 1
x[957] 1
x[958] 1
x[959] 1
x[960] 0
x[961] 1
x[962] 1
x[963] 1
x[964] 0
x[965] 0
x[966] 1
x[967] 0
x[968] 1
x[969] 1
x[970] 1
x[971] 1
x[972] 1
x[973] 1
x[974] 1
x[975] 1
x[976] 0
x[977] 1
x[978] 1
x[979] 0
x[980] 0
x[981] 1
x[982] 0
x[983] 1
x[984] 0
x[985] 0
x[986] 1
x[987] 0
x[988] 0
x[989] 1
x[990] 1
x[991] 1
x[992] 1
x[993] 1
x[994] 1
x[995] 1
x[996] 1
x[997] 1
x[998] 0
x[999] 0
